(declare-const v0 Bool)
(declare-const v1 Bool)
(declare-const v2 Bool)
(declare-const v3 Bool)
(declare-const v4 Bool)
(assert (edge v0 (or (not v1) (not v2))))
(assert (edge v2 (or (not v1) (not v3))))
(assert (edge (or v1 (not v2)) (or v1 v4)))
(assert (edge (or v0 v3 v4) (or v3 v4)))
(assert (edge (not v4) true))
(assert (not (edge (or (not v1) (not v3) (not v4)) true)))